MiniSAT Results
UNSAT
MiniSAT Standard output
WARNING: for repeatability, setting FPU to use double precision
============================[ Problem Statistics ]=============================
|                                                                             |
|  Number of variables:            17                                         |
|  Number of clauses:              37                                         |
|  Parse time:                   0.00 s                                       |
|  Eliminated clauses:           0.00 Mb                                      |
|  Simplification time:          0.00 s                                       |
|                                                                             |
===============================================================================
Solved by simplification
restarts              : 0
conflicts             : 0              (0 /sec)
decisions             : 0              (-nan % random) (0 /sec)
propagations          : 4              (2843 /sec)
conflict literals     : 0              (-nan % deleted)
Memory used           : 21.00 MB
CPU time              : 0.001407 s

UNSATISFIABLE